Route #1: 49 9 54 42 24 47 13
Route #2: 14 3 39 23 27 41 21 4 35 31
Route #3: 53 12 60 5 1 45 46 18 30 38
Route #4: 61 40 6 57 32 43 29
Route #5: 28 15 8 10 51
Route #6: 48 19 34 59 26 7 20
Route #7: 16 37 22 44 2 36 52
Route #8: 55 50 17 58 33 11 25 56
cost 1517.3721923828125